ALGO = Normal
LEPSILON = True # DFPT Calculation
ISYM = -1 # Symmetry off for DFPT
EDIFF = 1e-07
EDIFFG = -0.003
ENCUT = 300
GGA = Ps # PBEsol GGA DFT Functional
IBRION = 8 # Calculate second derivatives with DFPT
ICHARG = 1
ISIF = 2 # Keep cell volume fixed
ISMEAR = 0
ISPIN = 2
KPAR = 2
LASPH = True
LORBIT = 11
LREAL = False # Reciprocal space projections for accurate forces
LWAVE = True
NCORE = 9
NEDOS = 2000
NELM = 100
NSW = 1 # One ionic step
PREC = Accurate
SIGMA = 0.05
