ALGO = Normal
EDIFF = 1e-07
ENCUT = 300 # NEED ENCUT/ENMAX FLAG FOR GENERATE-CONVERGE
GGA = Ps
IBRION = -1
ICHARG = 1
ISIF = 3
ISMEAR = 0
ISPIN = 2
KPAR = 2
LASPH = True
LORBIT = 11
LREAL = False
LWAVE = True
NCORE = 6
NEDOS = 2000
NELM = 100
NSW = 0
PREC = Accurate
SIGMA = 0.05
