ALGO = Normal
NBANDS = 120
LOPTICS = True
EDIFF = 1e-07
EDIFFG = -0.003
ENCUT = 300
GGA = Ps
IBRION = -1
ICHARG = 1
ISIF = 2
ISMEAR = 0
ISPIN = 2
KPAR = 2
LASPH = True
LORBIT = 11
LREAL = False
LWAVE = True
MAGMOM = 14*0.0
NCORE = 9
NEDOS = 2000
NELM = 100
NSW = 0
PREC = Accurate
SIGMA = 0.05
