ALGO = Normal
NBANDS = 120 # Include NBANDS flag in INCAR
LOPTICS = True # Calculate frequency-dependent dielectric function
EDIFF = 1e-07
EDIFFG = -0.003
ENCUT = 300
GGA = Ps # Use PBEsol to get estimate of converged NBANDS value
IBRION = -1
ICHARG = 1
ISIF = 2
ISMEAR = 0
ISPIN = 2
KPAR = 2
LASPH = True
LORBIT = 11
LREAL = False # Reciprocal space projection required for LOPTICS calc
LWAVE = True
NCORE = 9
NEDOS = 2000
NELM = 100
NSW = 0
PREC = Accurate
SIGMA = 0.05
