ALGO = Normal
NBANDS = 120 # Include NBANDS flag in INCAR
LOPTICS = True # Calculate frequency-dependent dielectric function
CSHIFT = 1e-6 # Less absorption broadening for easier spectrum comparisons
EDIFF = 1e-07
ENCUT = 300 # Previously converged ENCUT
GGA = Ps # Use PBEsol to get estimate of converged NBANDS value
IBRION = -1
ICHARG = 1
ISMEAR = 0
ISPIN = 2
KPAR = 2
LASPH = True
LORBIT = 11
LREAL = False # Reciprocal space projection required for LOPTICS calc
LWAVE = True
NCORE = 12
NEDOS = 2000
NELM = 100
NSW = 0
PREC = Accurate
SIGMA = 0.05
